letting initialStacks = [14, 37, 9, 31, 34, 2, 42, 47, 6, 27, 4, 23, 18, 26, 39, 13, 51, 28, 45, 25, 29, 32, 33, 1, 30, 15, 7, 48, 21, 36, 41, 16, 24, 40, 44, 22, 46, 11, 19, 35, 50, 10, 38, 3, 43, 17, 49, 12, 5, 20, 8]
